[TITLE]

[JUNCTIONS]
;ID                      Elevation       Demand Pattern                 
 home                     32.80839895    15.850323141                            ;
 fixture                  26.24671916    7.9251615707                            ;

[RESERVOIRS]
;ID                                   Head                  Pattern
 source                  164.04199475                            ;

[TANKS]
;ID                              Elevation           Init Level            Min Level            Max Level             Diameter           Min Volume Volume Curve         Overflow            
 tank                    82.020997375     9.842519685               0     19.68503937     13.12335958               0                                             ;

[PIPES]
;ID                   Node1                Node2                              Length             Diameter            Roughness           Minor Loss               Status
 supply               source               tank                     328.0839895     9.842519685             100               0                 Open   ;
 branch               home                 fixture                  196.8503937     5.905511811             100               0                 Open   ;

[PUMPS]
;ID                   Node1                Node2                Properties          

[VALVES]
;ID                   Node1                Node2                            Diameter Type              Setting           Minor Loss
 isolation            tank                 home                     7.874015748 TCV                1               2   ;

[TAGS]
;type      name       tag       

[DEMANDS]
;ID        Demand     Pattern   

[STATUS]
;ID        Setting   

[PATTERNS]
;ID        Multipliers

[CURVES]
;ID         X-Value      Y-Value     

[CONTROLS]

[RULES]

[ENERGY]
GLOBAL PRICE           0.0000

[EMITTERS]
;ID        Flow coefficient
home       6.646932397063726
fixture    3.9881594382382355

[QUALITY]

[SOURCES]
;Node      Type       Quality    Pattern   

[REACTIONS]
;Type           Pipe/Tank               Coefficient

 ORDER BULK 1
 ORDER TANK 1
 ORDER WALL 1
 GLOBAL BULK 0.0000    
 GLOBAL WALL 0.0000    

[MIXING]
;Tank ID             Model Fraction

[TIMES]
DURATION             06:00:00
HYDRAULIC TIMESTEP   01:00:00
QUALITY TIMESTEP     00:06:00
PATTERN TIMESTEP     01:00:00
PATTERN START        00:00:00
REPORT TIMESTEP      01:00:00
REPORT START         00:00:00
START CLOCKTIME      00:00:00 AM
RULE TIMESTEP        00:06:00
STATISTIC            NONE      

[REPORT]

[OPTIONS]
UNITS                GPM                 
HEADLOSS             H-W                 
SPECIFIC GRAVITY     1
VISCOSITY            1
TRIALS               200
ACCURACY             0.001
CHECKFREQ            2
MAXCHECK             10
UNBALANCED           STOP                
PATTERN              1                   
DEMAND MULTIPLIER    1
EMITTER EXPONENT     0.5
QUALITY              NONE                
DIFFUSIVITY          1
TOLERANCE            0.01

[COORDINATES]
;Node      X-Coord    Y-Coord   
source              0.000000000          0.000000000
tank                0.000000000          0.000000000
home                0.000000000          0.000000000
fixture             0.000000000          0.000000000

[VERTICES]
;Link      X-Coord    Y-Coord   

[LABELS]

[BACKDROP]
UNITS    NONE

[END]
